(set-logic QF_AUFBV)
(declare-fun v5 () (_ BitVec 1))
(declare-fun bvlambda_1_ () (_ BitVec 1))
(declare-fun bvlambda_2_ () (_ BitVec 3))
(declare-fun bvlambda_3_ () (_ BitVec 2))
(declare-fun bvlambda_4_ () (_ BitVec 1))
(declare-fun bvlambda_5_ () (_ BitVec 11))
(declare-fun bvlambda_6_ () (_ BitVec 1))
(declare-fun bvlambda_7_ () (_ BitVec 2))
(declare-fun bvlambda_8_ () (_ BitVec 7))
(declare-fun bvlambda_9_ () (_ BitVec 1))
(declare-fun bvlambda_10_ () (_ BitVec 8))
(declare-fun bvlambda_11_ () (_ BitVec 1))
(declare-fun bvlambda_12_ () (_ BitVec 1))
(declare-fun a73 () (Array (_ BitVec 9) (_ BitVec 2)))
(declare-fun a74 () (Array (_ BitVec 13) (_ BitVec 9)))
(declare-fun a75 () (Array (_ BitVec 1) (_ BitVec 2)))
(assert
(let (($e1 (_ bv0 1)))
(let (($e2 (_ bv2618 12)))
(let (($e3 (_ bv12 4)))
(let (($e4 (_ bv598 10)))
(let (($e5 (_ bv2 5)))
(let (($e6 (_ bv292 9)))
(let (($e7 (_ bv6 3)))
(let (($e8 (_ bv98 8)))
(let (($e9 (_ bv14688 14)))
(let (($e10 (_ bv29500 16)))
(let (($e11 (_ bv96 7)))
(let (($e12 (_ bv6 4)))
(let (($e13 (_ bv70 13)))
(let (($e14 (_ bv96 16)))
(let (($e15 (_ bv0 13)))
(let (($e16 (_ bv0 3)))
(let (($e17 (_ bv0 2)))
(let (($e18 (_ bv0 5)))
(let (($e19 (_ bv12 8)))
(let (($e20 (_ bv2618 16)))
(let (($e21 (_ bv0 4)))
(let (($e22 (_ bv24 5)))
(let (($e23 (_ bv0 15)))
(let (($e24 (_ bv6 6)))
(let (($e25 (_ bv0 8)))
(let (($e26 (_ bv2 2)))
(let (($e27 (_ bv226 9)))
(let (($e28 (_ bv8190 13)))
(let (($e29 (_ bv0 7)))
(let (($e30 (_ bv816 13)))
(let (($e31 (_ bv0 11)))
(let (($e32 (_ bv16382 14)))
(let (($e33 (_ bv4094 12)))
(let (($e34 (_ bv65534 16)))
(let (($e35 (_ bv0 12)))
(let (($e36 (_ bv12 16)))
(let (($e37 (_ bv0 6)))
(let (($e38 (_ bv122 16)))
(let (($e39 (_ bv0 16)))
(let (($e40 (_ bv0 14)))
(let (($e41 (_ bv510 9)))
(let (($e42 (_ bv6 16)))
(let (($e43 (_ bv65504 16)))
(let (($e44 (_ bv32764 15)))
(let (($e45 (_ bv6 10)))
(let (($e46 (_ bv992 10)))
(let (($e47 (_ bv29500 15)))
(let (($e48 (_ bv6 9)))
(let (($e49 (_ bv122 15)))
(let (($e50 (_ bv0 9)))
(let (($e51 (_ bv570 11)))
(let (($e52 (_ bv12 9)))
(let (($e53 (_ bv16380 14)))
(let (($e54 (_ bv98 7)))
(let (($e55 (_ bv32766 15)))
(let (($e56 (_ bv0 10)))
(let (($e57 (_ bv6496 13)))
(let (($e58 (_ bv4066 12)))
(let (($e59 (_ bv36 8)))
(let (($e76 (select a75 $e1)))
(let (($e77 (concat $e17 $e76)))
(let (($e78 (concat $e29 bvlambda_1_)))
(let (($e79 (concat $e78 bvlambda_2_)))
(let (($e80 (concat $e79 bvlambda_3_)))
(let (($e81 (concat (bvnot $e29) bvlambda_1_)))
(let (($e82 (concat $e81 bvlambda_2_)))
(let (($e83 (concat $e82 bvlambda_3_)))
(let (($e84 (ite (= #b1 bvlambda_1_) $e83 $e80)))
(let (($e85 (select a74 $e84)))
(let (($e86 (concat $e29 $e85)))
(let (($e87 (bvlshr $e86  ((_ zero_extend 12) $e77))))
(let (($e88 ((_ extract 8 0) $e87)))
(let (($e89 (ite (bvult $e88 $e52) #b1 #b0)))
(let (($e90 (select a74 (bvnot $e30))))
(let (($e91 (bvadd (bvnot $e90) (bvnot $e41))))
(let (($e92 ((_ extract 8 8) $e90)))
(let (($e93 (select a74 (bvnot $e28))))
(let (($e94 ((_ extract 8 8) $e93)))
(let (($e95 (ite (= $e94 $e92) #b1 #b0)))
(let (($e96 ((_ extract 7 0) $e90)))
(let (($e97 ((_ extract 7 0) $e93)))
(let (($e98 (ite (bvult $e97 $e96) #b1 #b0)))
(let (($e99 (bvand $e98 $e95)))
(let (($e100 (bvand $e94 (bvnot $e92))))
(let (($e101 (bvand (bvnot $e100) (bvnot $e99))))
(let (($e102 (concat (bvnot $e25) (bvnot $e101))))
(let (($e103 (concat $e25 (bvnot $e101))))
(let (($e104 (ite (= #b1 $e101) $e103 $e102)))
(let (($e105 (ite (bvult $e104 $e91) #b1 #b0)))
(let (($e106 (bvand (bvnot $e105) $e89)))
(let (($e107 (concat $e31 $e76)))
(let (($e108 (concat $e16 bvlambda_11_)))
(let (($e109 (concat $e108 bvlambda_12_)))
(let (($e110 (concat (bvnot $e16) bvlambda_11_)))
(let (($e111 (concat $e110 bvlambda_12_)))
(let (($e112 (ite (= #b1 bvlambda_11_) $e111 $e109)))
(let (($e113 ((_ extract 2 0) $e112)))
(let (($e114 (bvshl $e19  ((_ zero_extend 5) $e113))))
(let (($e115 ((_ extract 4 0) $e114)))
(let (($e116 (concat $e25 $e115)))
(let (($e117 ((_ extract 4 3) $e112)))
(let (($e118 (ite (= $e17 $e117) #b1 #b0)))
(let (($e119 (ite (= #b1 $e118) $e116 $e15)))
(let (($e120 (store a74 $e119 (bvnot $e6))))
(let (($e121 (select $e120 $e107)))
(let (($e122 (concat $e16 $e76)))
(let (($e123 (concat (bvnot $e16) $e76)))
(let (($e124 ((_ extract 1 1) $e76)))
(let (($e125 (ite (= #b1 $e124) $e123 $e122)))
(let (($e126 (ite (bvult $e125 (bvnot $e5)) #b1 #b0)))
(let (($e127 (concat (bvnot $e25) (bvnot $e126))))
(let (($e128 (concat $e25 (bvnot $e126))))
(let (($e129 (ite (= #b1 $e126) $e128 $e127)))
(let (($e130 (ite (= $e129 $e121) #b1 #b0)))
(let (($e131 (bvand (bvnot v5) $e130)))
(let (($e132 (concat $e16 v5)))
(let (($e133 (bvmul $e3 $e132)))
(let (($e134 (concat $e15 bvlambda_6_)))
(let (($e135 (concat $e134 bvlambda_7_)))
(let (($e136 (concat (bvnot $e15) bvlambda_6_)))
(let (($e137 (concat $e136 bvlambda_7_)))
(let (($e138 (ite (= #b1 bvlambda_6_) $e137 $e135)))
(let (($e139 (bvand $e10 $e138)))
(let (($e140 (bvand (bvnot $e10) (bvnot $e138))))
(let (($e141 (bvand (bvnot $e140) (bvnot $e139))))
(let (($e142 ((_ extract 15 15) $e141)))
(let (($e143 (concat $e31 $e115)))
(let (($e144 (ite (= #b1 $e118) $e143 $e39)))
(let (($e145 (concat (bvnot $e31) $e115)))
(let (($e146 (ite (= #b1 $e118) $e145 $e43)))
(let (($e147 ((_ extract 4 4) $e114)))
(let (($e148 (bvand $e118 $e147)))
(let (($e149 (ite (= #b1 $e148) $e146 $e144)))
(let (($e150 ((_ extract 15 15) $e149)))
(let (($e151 (ite (= $e150 $e142) #b1 #b0)))
(let (($e152 ((_ extract 14 0) $e141)))
(let (($e153 ((_ extract 14 0) $e149)))
(let (($e154 (ite (bvult $e153 $e152) #b1 #b0)))
(let (($e155 (bvand $e154 $e151)))
(let (($e156 (bvand $e150 (bvnot $e142))))
(let (($e157 (bvand (bvnot $e156) (bvnot $e155))))
(let (($e158 (concat $e16 $e157)))
(let (($e159 (concat (bvnot $e16) $e157)))
(let (($e160 (ite (= #b1 $e157) $e159 $e158)))
(let (($e161 (ite (bvult $e160 $e133) #b1 #b0)))
(let (($e162 (bvand (bvnot $e161) (bvnot $e131))))
(let (($e163 (ite (= $e162 (bvnot $e106)) #b1 #b0)))
(let (($e164 (ite (= $e10 $e138) #b1 #b0)))
(let (($e165 (concat bvlambda_8_ bvlambda_9_)))
(let (($e166 (concat $e165 bvlambda_10_)))
(let (($e167 (ite (bvult $e166 $e20) #b1 #b0)))
(let (($e168 (concat $e167 $e167)))
(let (($e169 (concat bvlambda_11_ bvlambda_12_)))
(let (($e170 (ite (bvult $e169 $e168) #b1 #b0)))
(let (($e171 (concat $e37 $e170)))
(let (($e172 (concat (bvnot $e37) $e170)))
(let (($e173 (ite (= #b1 $e170) $e172 $e171)))
(let (($e174 (ite (bvult $e173 $e11) #b1 #b0)))
(let (($e175 (bvand $e174 $e164)))
(let (($e176 (concat $e21 bvlambda_4_)))
(let (($e177 (concat $e176 bvlambda_5_)))
(let (($e178 (bvurem $e14 $e166)))
(let (($e179 (bvand $e178 $e177)))
(let (($e180 ((_ extract 7 0) $e179)))
(let (($e181 (ite (= bvlambda_10_ (bvnot $e180)) #b1 #b0)))
(let (($e182 ((_ extract 8 8) $e179)))
(let (($e183 (ite (= bvlambda_9_ (bvnot $e182)) #b1 #b0)))
(let (($e184 ((_ extract 15 9) $e179)))
(let (($e185 (ite (= bvlambda_8_ (bvnot $e184)) #b1 #b0)))
(let (($e186 (bvand $e185 $e183)))
(let (($e187 (bvand $e186 $e181)))
(let (($e188 (concat $e1 (bvnot $e187))))
(let (($e189 (select a75 (bvnot $e1))))
(let (($e190 ((_ extract 0 0) $e179)))
(let (($e191 (ite (= #b1 $e190) $e189 $e188)))
(let (($e192 (concat $e21 $e191)))
(let (($e193 (concat (bvnot $e21) $e191)))
(let (($e194 ((_ extract 1 1) $e191)))
(let (($e195 (ite (= #b1 $e194) $e193 $e192)))
(let (($e196 (concat bvlambda_1_ bvlambda_2_)))
(let (($e197 (concat $e196 bvlambda_3_)))
(let (($e198 (bvand $e197 $e195)))
(let (($e199 (ite (= (bvnot $e17) bvlambda_3_) #b1 #b0)))
(let (($e200 (ite (= $e16 bvlambda_2_) #b1 #b0)))
(let (($e201 (bvand (bvnot bvlambda_1_) $e200)))
(let (($e202 (bvand $e201 $e199)))
(let (($e203 (concat $e18 $e202)))
(let (($e204 (ite (bvult $e203 (bvnot $e198)) #b1 #b0)))
(let (($e205 (bvand $e204 $e175)))
(let (($e206 (ite (bvult $e19 bvlambda_10_) #b1 #b0)))
(let (($e207 (bvand (bvnot bvlambda_9_) $e206)))
(let (($e208 (bvand (bvnot $e207) (bvnot $e205))))
(let (($e209 (bvand $e208 (bvnot $e163))))
(let (($e210 (ite (= bvlambda_10_ $e59) #b1 #b0)))
(let (($e211 (bvand bvlambda_9_ $e210)))
(let (($e212 ((_ extract 6 5) $e178)))
(let (($e213 ((_ extract 0 0) $e133)))
(let (($e214 (bvand $e26 bvlambda_3_)))
(let (($e215 (store a75 (bvnot $e1) $e214)))
(let (($e216 (store $e215 $e213 $e212)))
(let (($e217 (select $e216 (bvnot $e1))))
(let (($e218 (concat $e17 $e217)))
(let (($e219 (concat (bvnot $e17) $e217)))
(let (($e220 ((_ extract 1 1) $e217)))
(let (($e221 (ite (= #b1 $e220) $e219 $e218)))
(let (($e222 (ite (= $e12 $e221) #b1 #b0)))
(let (($e223 (concat $e16 $e217)))
(let (($e224 (concat (bvnot $e16) $e217)))
(let (($e225 (ite (= #b1 $e220) $e224 $e223)))
(let (($e226 (bvudiv $e225 $e22)))
(let (($e227 ((_ extract 3 0) $e226)))
(let (($e228 (ite (bvult $e227 $e77) #b1 #b0)))
(let (($e229 ((_ extract 4 4) $e226)))
(let (($e230 (bvand (bvnot $e229) (bvnot $e228))))
(let (($e231 (ite (= $e230 (bvnot $e222)) #b1 #b0)))
(let (($e232 (concat $e35 $e76)))
(let (($e233 (concat (bvnot $e35) $e76)))
(let (($e234 (ite (= #b1 $e124) $e233 $e232)))
(let (($e235 (bvadd (bvnot $e32) (bvnot $e234))))
(let (($e236 ((_ extract 13 13) $e234)))
(let (($e237 (ite (= #b1 $e236) $e235 $e234)))
(let (($e238 (bvudiv $e237 (bvnot $e9))))
(let (($e239 (bvadd (bvnot $e32) (bvnot $e238))))
(let (($e240 (ite (= #b1 $e236) $e238 $e239)))
(let (($e241 (ite (bvult (bvnot $e32) $e240) #b1 #b0)))
(let (($e242 (bvand (bvnot $e241) $e231)))
(let (($e243 (bvand (bvnot $e242) (bvnot $e211))))
(let (($e244 (concat (bvnot $e17) (bvnot $e187))))
(let (($e245 (concat $e17 (bvnot $e187))))
(let (($e246 (ite (= #b1 $e187) $e245 $e244)))
(let (($e247 (ite (= $e16 $e246) #b1 #b0)))
(let (($e248 (bvand (bvnot $e247) $e242)))
(let (($e249 (bvand (bvnot $e248) (bvnot $e243))))
(let (($e250 (bvand $e249 (bvnot $e209))))
(let (($e251 (concat $e16 bvlambda_1_)))
(let (($e252 (concat $e251 bvlambda_2_)))
(let (($e253 (concat $e252 bvlambda_3_)))
(let (($e254 (bvand $e48 $e253)))
(let (($e255 (ite (bvult $e254 $e88) #b1 #b0)))
(let (($e256 (concat $e21 bvlambda_1_)))
(let (($e257 (concat $e256 bvlambda_2_)))
(let (($e258 (concat $e257 bvlambda_3_)))
(let (($e259 (bvand $e45 $e258)))
(let (($e260 (bvurem $e259 (bvnot $e4))))
(let (($e261 (ite (bvult (bvnot $e46) $e260) #b1 #b0)))
(let (($e262 (bvand (bvnot $e261) (bvnot $e255))))
(let (($e263 (bvand $e261 $e255)))
(let (($e264 (bvand (bvnot $e263) (bvnot $e262))))
(let (($e265 (ite (= bvlambda_7_ $e217) #b1 #b0)))
(let (($e266 (ite (= bvlambda_6_ $e220) #b1 #b0)))
(let (($e267 (bvand $e266 $e265)))
(let (($e268 (bvadd (bvnot $e34) $e179)))
(let (($e269 ((_ extract 3 0) $e268)))
(let (($e270 (concat $e29 $e88)))
(let (($e271 (concat (bvnot $e29) $e88)))
(let (($e272 ((_ extract 8 8) $e87)))
(let (($e273 (ite (= #b1 $e272) $e271 $e270)))
(let (($e274 (bvlshr $e273  ((_ zero_extend 12) $e269))))
(let (($e275 ((_ extract 15 4) $e268)))
(let (($e276 (ite (= $e35 $e275) #b1 #b0)))
(let (($e277 (ite (= #b1 $e276) $e274 $e39)))
(let (($e278 (ite (= (bvnot $e179) $e277) #b1 #b0)))
(let (($e279 (bvand $e278 $e267)))
(let (($e280 ((_ extract 14 0) $e274)))
(let (($e281 (ite (= #b1 $e276) $e280 $e23)))
(let (($e282 (ite (bvult (bvnot $e47) $e281) #b1 #b0)))
(let (($e283 ((_ extract 15 15) $e274)))
(let (($e284 (bvand $e276 $e283)))
(let (($e285 (bvand $e284 (bvnot $e282))))
(let (($e286 (concat $e18 $e133)))
(let (($e287 (select a73 $e286)))
(let (($e288 (concat $e40 $e287)))
(let (($e289 (concat (bvnot $e40) $e287)))
(let (($e290 ((_ extract 1 1) $e287)))
(let (($e291 (ite (= #b1 $e290) $e289 $e288)))
(let (($e292 ((_ extract 14 0) $e291)))
(let (($e293 (ite (bvult $e292 $e47) #b1 #b0)))
(let (($e294 ((_ extract 15 15) $e291)))
(let (($e295 (bvand (bvnot $e294) (bvnot $e293))))
(let (($e296 (ite (= (bvnot $e295) $e285) #b1 #b0)))
(let (($e297 (ite (= $e296 $e279) #b1 #b0)))
(let (($e298 (concat bvlambda_9_ bvlambda_10_)))
(let (($e299 (ite (bvult (bvnot $e41) $e298) #b1 #b0)))
(let (($e300 (bvand $e299 $e297)))
(let (($e301 (ite (= (bvnot $e300) $e264) #b1 #b0)))
(let (($e302 (ite (bvult (bvnot $e10) $e166) #b1 #b0)))
(let (($e303 (concat bvlambda_4_ bvlambda_5_)))
(let (($e304 (bvadd (bvnot $e33) (bvnot $e303))))
(let (($e305 (ite (= #b1 bvlambda_4_) $e304 $e303)))
(let (($e306 (bvurem (bvnot $e33) $e305)))
(let (($e307 ((_ extract 11 11) $e306)))
(let (($e308 (concat $e307 $e306)))
(let (($e309 (ite (bvult $e308 (bvnot $e13)) #b1 #b0)))
(let (($e310 (bvand (bvnot $e309) $e302)))
(let (($e311 (concat $e37 $e167)))
(let (($e312 (concat (bvnot $e37) $e167)))
(let (($e313 (ite (= #b1 $e167) $e312 $e311)))
(let (($e314 (ite (bvult $e11 $e313) #b1 #b0)))
(let (($e315 (bvand (bvnot $e314) (bvnot $e310))))
(let (($e316 (ite (= (bvnot $e17) $e189) #b1 #b0)))
(let (($e317 (bvand $e316 (bvnot $e315))))
(let (($e318 (bvand (bvnot $e187) $e315)))
(let (($e319 (bvand (bvnot $e318) (bvnot $e317))))
(let (($e320 (concat $e21 $e85)))
(let (($e321 (concat (bvnot $e21) $e85)))
(let (($e322 ((_ extract 8 8) $e85)))
(let (($e323 (ite (= #b1 $e322) $e321 $e320)))
(let (($e324 (ite (= $e28 $e323) #b1 #b0)))
(let (($e325 (bvand (bvnot $e324) (bvnot $e319))))
(let (($e326 (concat (bvnot $e21) bvlambda_1_)))
(let (($e327 (concat $e326 bvlambda_2_)))
(let (($e328 (concat $e327 bvlambda_3_)))
(let (($e329 (ite (= #b1 bvlambda_1_) $e328 $e258)))
(let (($e330 (ite (bvult $e329 (bvnot $e4)) #b1 #b0)))
(let (($e331 (ite (= $e330 (bvnot $e325)) #b1 #b0)))
(let (($e332 (bvand (bvnot $e331) (bvnot $e301))))
(let (($e333 (concat $e31 bvlambda_6_)))
(let (($e334 (concat $e333 bvlambda_7_)))
(let (($e335 (concat (bvnot $e31) bvlambda_6_)))
(let (($e336 (concat $e335 bvlambda_7_)))
(let (($e337 (ite (= #b1 bvlambda_6_) $e336 $e334)))
(let (($e338 (ite (= (bvnot $e9) $e337) #b1 #b0)))
(let (($e339 (concat (bvnot $e31) (bvnot $e126))))
(let (($e340 (concat $e31 (bvnot $e126))))
(let (($e341 (ite (= #b1 $e126) $e340 $e339)))
(let (($e342 ((_ extract 10 0) $e341)))
(let (($e343 (ite (bvult $e342 $e51) #b1 #b0)))
(let (($e344 ((_ extract 11 11) $e341)))
(let (($e345 (bvand $e344 $e343)))
(let (($e346 (bvand $e345 (bvnot $e338))))
(let (($e347 (bvand (bvnot $e346) $e331)))
(let (($e348 (bvand (bvnot $e347) (bvnot $e332))))
(let (($e349 (ite (= #b1 $e118) $e115 $e18)))
(let (($e350 (concat $e21 $e76)))
(let (($e351 (bvand (bvnot $e350) $e198)))
(let (($e352 ((_ extract 4 0) $e351)))
(let (($e353 (ite (bvult (bvnot $e352) $e349) #b1 #b0)))
(let (($e354 ((_ extract 5 5) $e351)))
(let (($e355 (bvand $e354 (bvnot $e353))))
(let (($e356 (bvand $e355 $e348)))
(let (($e357 (concat $e16 bvlambda_6_)))
(let (($e358 (concat $e357 bvlambda_7_)))
(let (($e359 (concat (bvnot $e16) bvlambda_6_)))
(let (($e360 (concat $e359 bvlambda_7_)))
(let (($e361 (ite (= #b1 bvlambda_6_) $e360 $e358)))
(let (($e362 (bvand $e24 $e197)))
(let (($e363 (ite (= $e362 $e361) #b1 #b0)))
(let (($e364 (concat $e25 $e167)))
(let (($e365 (concat (bvnot $e25) $e167)))
(let (($e366 (ite (= #b1 $e167) $e365 $e364)))
(let (($e367 (ite (= $e91 $e366) #b1 #b0)))
(let (($e368 (ite (= $e367 $e363) #b1 #b0)))
(let (($e369 ((_ extract 14 0) $e178)))
(let (($e370 (ite (bvult $e369 (bvnot $e44)) #b1 #b0)))
(let (($e371 ((_ extract 15 15) $e178)))
(let (($e372 (bvand (bvnot $e371) (bvnot $e370))))
(let (($e373 (ite (= bvlambda_12_ $e372) #b1 #b0)))
(let (($e374 (ite (= bvlambda_11_ $e372) #b1 #b0)))
(let (($e375 (bvand $e374 $e373)))
(let (($e376 (select a73 (bvnot $e27))))
(let (($e377 ((_ extract 1 1) $e376)))
(let (($e378 (bvand (bvnot $e101) (bvnot $e377))))
(let (($e379 (bvand $e101 $e377)))
(let (($e380 (bvand (bvnot $e379) (bvnot $e378))))
(let (($e381 ((_ extract 0 0) $e376)))
(let (($e382 (bvand (bvnot $e101) (bvnot $e381))))
(let (($e383 (bvand $e382 $e380)))
(let (($e384 (bvand (bvnot $e379) (bvnot $e383))))
(let (($e385 (bvand (bvnot $e384) (bvnot $e375))))
(let (($e386 (ite (= (bvnot $e58) $e306) #b1 #b0)))
(let (($e387 (bvand $e384 (bvnot $e386))))
(let (($e388 (bvand (bvnot $e387) (bvnot $e385))))
(let (($e389 (ite (= $e39 $e178) #b1 #b0)))
(let (($e390 (concat $e16 $e93)))
(let (($e391 (concat (bvnot $e16) $e93)))
(let (($e392 (ite (= #b1 $e94) $e391 $e390)))
(let (($e393 (ite (bvult $e2 $e392) #b1 #b0)))
(let (($e394 (bvand $e393 $e389)))
(let (($e395 (bvand (bvnot $e393) (bvnot $e389))))
(let (($e396 (bvand (bvnot $e395) (bvnot $e394))))
(let (($e397 (ite (= $e396 $e388) #b1 #b0)))
(let (($e398 (concat (bvnot $e17) $e76)))
(let (($e399 (ite (= #b1 $e124) $e398 $e77)))
(let (($e400 (ite (bvult $e399 $e133) #b1 #b0)))
(let (($e401 (ite (= $e400 (bvnot $e397)) #b1 #b0)))
(let (($e402 (ite (= (bvnot $e17) $e217) #b1 #b0)))
(let (($e403 (ite (= $e376 $e189) #b1 #b0)))
(let (($e404 (ite (= $e403 $e402) #b1 #b0)))
(let (($e405 ((_ extract 14 0) $e268)))
(let (($e406 (concat $e23 $e167)))
(let (($e407 (ite (bvult $e406 $e141) #b1 #b0)))
(let (($e408 (concat $e40 $e407)))
(let (($e409 (ite (bvult $e408 $e405) #b1 #b0)))
(let (($e410 ((_ extract 15 15) $e268)))
(let (($e411 (bvand (bvnot $e410) $e409)))
(let (($e412 (bvand (bvnot $e411) $e404)))
(let (($e413 (bvand $e412 (bvnot $e401))))
(let (($e414 (bvand (bvnot $e413) (bvnot $e368))))
(let (($e415 (concat $e40 $e376)))
(let (($e416 (concat (bvnot $e40) $e376)))
(let (($e417 (ite (= #b1 $e377) $e416 $e415)))
(let (($e418 (ite (bvult $e417 $e141) #b1 #b0)))
(let (($e419 (concat $e23 $e372)))
(let (($e420 (concat (bvnot $e23) $e372)))
(let (($e421 (ite (= #b1 $e372) $e420 $e419)))
(let (($e422 (bvand (bvnot $e38) (bvnot $e179))))
(let (($e423 (ite (bvult $e422 $e421) #b1 #b0)))
(let (($e424 (ite (= $e423 (bvnot $e418)) #b1 #b0)))
(let (($e425 (concat (bvnot $e35) (bvnot $e407))))
(let (($e426 (concat $e35 (bvnot $e407))))
(let (($e427 (ite (= #b1 $e407) $e426 $e425)))
(let (($e428 (ite (bvult (bvnot $e13) $e427) #b1 #b0)))
(let (($e429 (ite (= $e428 $e424) #b1 #b0)))
(let (($e430 (bvand (bvnot $e429) $e413)))
(let (($e431 (bvand (bvnot $e430) (bvnot $e414))))
(let (($e432 (bvand (bvnot $e431) $e356)))
(let (($e433 (concat $e25 bvlambda_1_)))
(let (($e434 (concat $e433 bvlambda_2_)))
(let (($e435 (concat $e434 bvlambda_3_)))
(let (($e436 (concat (bvnot $e25) bvlambda_1_)))
(let (($e437 (concat $e436 bvlambda_2_)))
(let (($e438 (concat $e437 bvlambda_3_)))
(let (($e439 (ite (= #b1 bvlambda_1_) $e438 $e435)))
(let (($e440 ((_ extract 12 0) $e439)))
(let (($e441 (ite (bvult (bvnot $e57) $e440) #b1 #b0)))
(let (($e442 ((_ extract 13 13) $e439)))
(let (($e443 (bvand (bvnot $e442) $e441)))
(let (($e444 (ite (bvult $e191 $e287) #b1 #b0)))
(let (($e445 (concat (bvnot $e31) (bvnot $e444))))
(let (($e446 (concat $e31 (bvnot $e444))))
(let (($e447 (ite (= #b1 $e444) $e446 $e445)))
(let (($e448 (ite (bvult $e447 $e2) #b1 #b0)))
(let (($e449 (bvand (bvnot $e448) $e443)))
(let (($e450 (concat $e23 $e161)))
(let (($e451 (ite (bvult $e450 $e10) #b1 #b0)))
(let (($e452 (bvand (bvnot $e451) (bvnot $e449))))
(let (($e453 (ite (bvult $e7 $e245) #b1 #b0)))
(let (($e454 (bvand (bvnot $e453) $e451)))
(let (($e455 (bvand (bvnot $e454) (bvnot $e452))))
(let (($e456 (ite (bvult (bvnot $e26) bvlambda_7_) #b1 #b0)))
(let (($e457 (bvand (bvnot bvlambda_6_) $e456)))
(let (($e458 (bvand (bvnot $e457) (bvnot $e455))))
(let (($e459 ((_ extract 15 15) $e138)))
(let (($e460 (ite (= $e459 $e410) #b1 #b0)))
(let (($e461 ((_ extract 14 0) $e138)))
(let (($e462 (ite (bvult $e461 $e405) #b1 #b0)))
(let (($e463 (bvand $e462 $e460)))
(let (($e464 (bvand $e459 (bvnot $e410))))
(let (($e465 (bvand (bvnot $e464) (bvnot $e463))))
(let (($e466 (bvand $e465 $e161)))
(let (($e467 (ite (bvult $e24 (bvnot $e351)) #b1 #b0)))
(let (($e468 (ite (= $e467 $e466) #b1 #b0)))
(let (($e469 (bvand $e457 (bvnot $e468))))
(let (($e470 (bvand (bvnot $e469) (bvnot $e458))))
(let (($e471 (ite (= $e121 $e254) #b1 #b0)))
(let (($e472 (ite (= (bvnot $e471) $e470) #b1 #b0)))
(let (($e473 (ite (= (bvnot $e41) $e121) #b1 #b0)))
(let (($e474 ((_ extract 10 0) $e306)))
(let (($e475 (ite (bvult $e51 $e474) #b1 #b0)))
(let (($e476 (bvand $e307 (bvnot $e475))))
(let (($e477 (bvand (bvnot $e476) (bvnot $e473))))
(let (($e478 (ite (= $e25 bvlambda_10_) #b1 #b0)))
(let (($e479 (bvand (bvnot bvlambda_9_) (bvnot $e478))))
(let (($e480 (bvand (bvnot $e479) $e476)))
(let (($e481 (bvand (bvnot $e480) (bvnot $e477))))
(let (($e482 (concat $e17 $e240)))
(let (($e483 (concat (bvnot $e17) $e240)))
(let (($e484 ((_ extract 13 13) $e240)))
(let (($e485 (ite (= #b1 $e484) $e483 $e482)))
(let (($e486 (ite (= $e485 $e268) #b1 #b0)))
(let (($e487 (concat $e25 $e486)))
(let (($e488 (concat (bvnot $e25) $e486)))
(let (($e489 (ite (= #b1 $e486) $e488 $e487)))
(let (($e490 (ite (= $e489 $e88) #b1 #b0)))
(let (($e491 (ite (= $e490 $e481) #b1 #b0)))
(let (($e492 (concat $e21 $e170)))
(let (($e493 (concat (bvnot $e21) $e170)))
(let (($e494 (ite (= #b1 $e170) $e493 $e492)))
(let (($e495 ((_ extract 4 4) $e494)))
(let (($e496 (ite (= $e229 $e495) #b1 #b0)))
(let (($e497 ((_ extract 3 0) $e494)))
(let (($e498 (ite (bvult $e497 $e227) #b1 #b0)))
(let (($e499 (bvand $e498 $e496)))
(let (($e500 (bvand (bvnot $e229) $e495)))
(let (($e501 (bvand (bvnot $e500) (bvnot $e499))))
(let (($e502 (ite (bvult $e277 $e43) #b1 #b0)))
(let (($e503 (bvand $e502 (bvnot $e501))))
(let (($e504 (ite (= $e503 $e491) #b1 #b0)))
(let (($e505 (bvand $e504 $e472)))
(let (($e506 (bvand $e505 $e432)))
(let (($e507 (bvand $e506 (bvnot $e250))))
(let (($e508 (concat $e15 $e167)))
(let (($e509 (concat (bvnot $e15) $e167)))
(let (($e510 (ite (= #b1 $e167) $e509 $e508)))
(let (($e511 (ite (bvult (bvnot $e32) $e510) #b1 #b0)))
(let (($e512 (ite (bvult $e168 $e189) #b1 #b0)))
(let (($e513 (bvand (bvnot $e512) (bvnot $e511))))
(let (($e514 (concat $e21 $e486)))
(let (($e515 (concat (bvnot $e21) $e486)))
(let (($e516 (ite (= #b1 $e486) $e515 $e514)))
(let (($e517 ((_ extract 4 4) $e516)))
(let (($e518 (ite (= $e148 $e517) #b1 #b0)))
(let (($e519 ((_ extract 3 0) $e114)))
(let (($e520 (ite (= #b1 $e118) $e519 $e21)))
(let (($e521 ((_ extract 3 0) $e516)))
(let (($e522 (ite (bvult $e521 $e520) #b1 #b0)))
(let (($e523 (bvand $e522 $e518)))
(let (($e524 (bvand (bvnot $e148) $e517)))
(let (($e525 (bvand (bvnot $e524) (bvnot $e523))))
(let (($e526 (bvand $e525 $e512)))
(let (($e527 (bvand (bvnot $e526) (bvnot $e513))))
(let (($e528 (concat (bvnot $e23) (bvnot $e402))))
(let (($e529 (concat $e23 (bvnot $e402))))
(let (($e530 (ite (= #b1 $e402) $e529 $e528)))
(let (($e531 (ite (bvult $e530 $e141) #b1 #b0)))
(let (($e532 (ite (= $e531 $e527) #b1 #b0)))
(let (($e533 (ite (= $e17 $e217) #b1 #b0)))
(let (($e534 (bvand $e533 (bvnot $e532))))
(let (($e535 (concat $e17 bvlambda_1_)))
(let (($e536 (concat $e535 bvlambda_2_)))
(let (($e537 (concat $e536 bvlambda_3_)))
(let (($e538 (concat (bvnot $e17) bvlambda_1_)))
(let (($e539 (concat $e538 bvlambda_2_)))
(let (($e540 (concat $e539 bvlambda_3_)))
(let (($e541 (ite (= #b1 bvlambda_1_) $e540 $e537)))
(let (($e542 (ite (= (bvnot $e8) $e541) #b1 #b0)))
(let (($e543 (ite (= $e542 (bvnot $e534)) #b1 #b0)))
(let (($e544 ((_ extract 12 0) $e240)))
(let (($e545 (concat $e56 bvlambda_6_)))
(let (($e546 (concat $e545 bvlambda_7_)))
(let (($e547 (ite (bvult $e546 $e544) #b1 #b0)))
(let (($e548 (bvand (bvnot $e484) $e547)))
(let (($e549 (ite (bvult $e128 $e298) #b1 #b0)))
(let (($e550 (bvand (bvnot $e549) (bvnot $e548))))
(let (($e551 ((_ extract 1 0) $e268)))
(let (($e552 (ite (= $e17 $e551) #b1 #b0)))
(let (($e553 ((_ extract 15 2) $e268)))
(let (($e554 (bvand $e53 (bvnot $e553))))
(let (($e555 (ite (= $e40 $e554) #b1 #b0)))
(let (($e556 (bvand $e555 $e552)))
(let (($e557 (bvand $e549 (bvnot $e556))))
(let (($e558 (bvand (bvnot $e557) (bvnot $e550))))
(let (($e559 (bvand $e558 $e543)))
(let (($e560 (bvand (bvnot $e558) (bvnot $e543))))
(let (($e561 (bvand (bvnot $e560) (bvnot $e559))))
(let (($e562 (ite (= $e39 $e179) #b1 #b0)))
(let (($e563 (concat $e562 $e562)))
(let (($e564 (ite (bvult $e563 $e169) #b1 #b0)))
(let (($e565 (bvand (bvnot $e564) (bvnot $e561))))
(let (($e566 (ite (bvult $e364 $e93) #b1 #b0)))
(let (($e567 (concat $e29 $e189)))
(let (($e568 (concat (bvnot $e29) $e189)))
(let (($e569 ((_ extract 1 1) $e189)))
(let (($e570 (ite (= #b1 $e569) $e568 $e567)))
(let (($e571 (ite (= $e570 $e85) #b1 #b0)))
(let (($e572 (bvand $e571 $e566)))
(let (($e573 (bvand $e564 (bvnot $e572))))
(let (($e574 (bvand (bvnot $e573) (bvnot $e565))))
(let (($e575 (bvand (bvnot $e36) (bvnot $e268))))
(let (($e576 (ite (bvult $e575 $e34) #b1 #b0)))
(let (($e577 (bvand $e576 $e574)))
(let (($e578 (ite (bvult $e42 $e422) #b1 #b0)))
(let (($e579 (concat $e29 (bvnot $e578))))
(let (($e580 (ite (bvult $e579 $e96) #b1 #b0)))
(let (($e581 (bvand (bvnot $e92) $e580)))
(let (($e582 ((_ extract 5 0) $e93)))
(let (($e583 (ite (= $e582 (bvnot $e351)) #b1 #b0)))
(let (($e584 ((_ extract 8 6) $e93)))
(let (($e585 (ite (= $e16 $e584) #b1 #b0)))
(let (($e586 (bvand $e585 $e583)))
(let (($e587 (ite (= $e586 $e581) #b1 #b0)))
(let (($e588 (concat $e17 $e93)))
(let (($e589 (ite (bvult bvlambda_5_ $e588) #b1 #b0)))
(let (($e590 (bvand (bvnot bvlambda_4_) (bvnot $e589))))
(let (($e591 (bvand (bvnot $e590) $e587)))
(let (($e592 (concat $e29 $e157)))
(let (($e593 (concat (bvnot $e29) $e157)))
(let (($e594 (ite (= #b1 $e157) $e593 $e592)))
(let (($e595 ((_ extract 6 0) $e594)))
(let (($e596 (ite (bvult (bvnot $e54) $e595) #b1 #b0)))
(let (($e597 ((_ extract 7 7) $e594)))
(let (($e598 (bvand $e597 (bvnot $e596))))
(let (($e599 (bvand $e407 $e170)))
(let (($e600 (ite (= $e599 $e598) #b1 #b0)))
(let (($e601 (concat (bvnot $e25) (bvnot $e402))))
(let (($e602 (concat $e25 (bvnot $e402))))
(let (($e603 (ite (= #b1 $e402) $e602 $e601)))
(let (($e604 (bvadd (bvnot $e41) (bvnot $e603))))
(let (($e605 ((_ extract 8 8) $e603)))
(let (($e606 (ite (= #b1 $e605) $e604 $e603)))
(let (($e607 (bvudiv $e606 (bvnot $e6))))
(let (($e608 (bvadd (bvnot $e41) (bvnot $e607))))
(let (($e609 (ite (= #b1 $e605) $e608 $e607)))
(let (($e610 ((_ extract 7 0) $e609)))
(let (($e611 (ite (= $e25 $e610) #b1 #b0)))
(let (($e612 ((_ extract 8 8) $e609)))
(let (($e613 (bvand (bvnot $e612) (bvnot $e611))))
(let (($e614 (bvand $e613 (bvnot $e600))))
(let (($e615 (bvand (bvnot $e614) (bvnot $e591))))
(let (($e616 (concat $e21 $e133)))
(let (($e617 (concat (bvnot $e21) $e133)))
(let (($e618 ((_ extract 3 3) $e133)))
(let (($e619 (ite (= #b1 $e618) $e617 $e616)))
(let (($e620 (ite (bvult (bvnot $e8) $e619) #b1 #b0)))
(let (($e621 (bvand (bvnot $e620) (bvnot $e615))))
(let (($e622 (bvand $e620 $e615)))
(let (($e623 (bvand (bvnot $e622) (bvnot $e621))))
(let (($e624 (ite (bvult (bvnot $e6) $e609) #b1 #b0)))
(let (($e625 (concat $e21 $e226)))
(let (($e626 (concat (bvnot $e21) $e226)))
(let (($e627 (ite (= #b1 $e229) $e626 $e625)))
(let (($e628 ((_ extract 8 8) $e627)))
(let (($e629 (ite (= bvlambda_9_ $e628) #b1 #b0)))
(let (($e630 ((_ extract 7 0) $e627)))
(let (($e631 (ite (bvult $e630 bvlambda_10_) #b1 #b0)))
(let (($e632 (bvand $e631 $e629)))
(let (($e633 (bvand (bvnot bvlambda_9_) $e628)))
(let (($e634 (bvand (bvnot $e633) (bvnot $e632))))
(let (($e635 (ite (= (bvnot $e634) $e624) #b1 #b0)))
(let (($e636 (concat $e18 $e130)))
(let (($e637 (concat (bvnot $e18) $e130)))
(let (($e638 (ite (= #b1 $e130) $e637 $e636)))
(let (($e639 (ite (= $e362 $e638) #b1 #b0)))
(let (($e640 (concat $e15 $e76)))
(let (($e641 (ite (bvult $e47 $e640) #b1 #b0)))
(let (($e642 (bvand (bvnot $e641) $e639)))
(let (($e643 (bvand $e642 $e635)))
(let (($e644 (concat $e23 $e562)))
(let (($e645 (concat (bvnot $e23) $e562)))
(let (($e646 (ite (= #b1 $e562) $e645 $e644)))
(let (($e647 (ite (bvult $e141 $e646) #b1 #b0)))
(let (($e648 (ite (= $e647 $e643) #b1 #b0)))
(let (($e649 (bvand $e648 $e623)))
(let (($e650 (bvand (bvnot $e649) $e577)))
(let (($e651 ((_ extract 4 0) $e195)))
(let (($e652 (concat bvlambda_2_ bvlambda_3_)))
(let (($e653 (bvand $e652 $e651)))
(let (($e654 (ite (bvult $e5 $e653) #b1 #b0)))
(let (($e655 ((_ extract 5 5) $e195)))
(let (($e656 (bvand bvlambda_1_ $e655)))
(let (($e657 (bvand $e656 (bvnot $e654))))
(let (($e658 (ite (= $e50 $e85) #b1 #b0)))
(let (($e659 (bvand $e658 (bvnot $e657))))
(let (($e660 (concat (bvnot $e17) (bvnot $e407))))
(let (($e661 (concat $e17 (bvnot $e407))))
(let (($e662 (ite (= #b1 $e407) $e661 $e660)))
(let (($e663 (ite (bvult (bvnot $e7) $e662) #b1 #b0)))
(let (($e664 (concat $e25 $e287)))
(let (($e665 (concat (bvnot $e25) $e287)))
(let (($e666 (ite (= #b1 $e290) $e665 $e664)))
(let (($e667 ((_ extract 8 0) $e666)))
(let (($e668 (ite (bvult (bvnot $e41) $e667) #b1 #b0)))
(let (($e669 ((_ extract 9 9) $e666)))
(let (($e670 (bvand (bvnot $e669) $e668)))
(let (($e671 (bvand (bvnot $e670) $e663)))
(let (($e672 (ite (= (bvnot $e671) $e659) #b1 #b0)))
(let (($e673 (concat $e23 $e407)))
(let (($e674 (concat (bvnot $e23) $e407)))
(let (($e675 (ite (= #b1 $e407) $e674 $e673)))
(let (($e676 ((_ extract 15 15) $e675)))
(let (($e677 ((_ extract 15 15) $e179)))
(let (($e678 (bvand $e677 $e676)))
(let (($e679 (bvand (bvnot $e677) (bvnot $e676))))
(let (($e680 (bvand (bvnot $e679) (bvnot $e678))))
(let (($e681 ((_ extract 14 0) $e675)))
(let (($e682 ((_ extract 14 0) $e179)))
(let (($e683 (bvand (bvnot $e49) (bvnot $e682))))
(let (($e684 (ite (bvult $e683 $e681) #b1 #b0)))
(let (($e685 (bvand $e684 $e680)))
(let (($e686 (bvand (bvnot $e679) (bvnot $e685))))
(let (($e687 (bvand (bvnot $e142) (bvnot $e686))))
(let (($e688 (concat (bvnot $e8) $e407)))
(let (($e689 (ite (bvult $e688 $e489) #b1 #b0)))
(let (($e690 (bvand (bvnot $e689) $e687)))
(let (($e691 (bvand $e690 $e672)))
(let (($e692 (bvand (bvnot $e690) (bvnot $e672))))
(let (($e693 (bvand (bvnot $e692) (bvnot $e691))))
(let (($e694 (ite (bvult $e55 $e682) #b1 #b0)))
(let (($e695 (bvand $e677 (bvnot $e694))))
(let (($e696 (ite (= (bvnot $e695) $e693) #b1 #b0)))
(let (($e697 (bvand $e649 (bvnot $e696))))
(let (($e698 (bvand (bvnot $e697) (bvnot $e650))))
(let (($e699 (bvand (bvnot $e698) (bvnot $e506))))
(let (($e700 (ite (= $e29 bvlambda_8_) #b1 #b0)))
(let (($e701 (bvand (bvnot bvlambda_9_) $e700)))
(let (($e702 (bvand $e701 $e478)))
(let (($e703 (ite (= $e31 bvlambda_5_) #b1 #b0)))
(let (($e704 (bvand (bvnot bvlambda_4_) $e703)))
(let (($e705 (ite (= (bvnot $e31) bvlambda_5_) #b1 #b0)))
(let (($e706 (bvand bvlambda_4_ $e705)))
(let (($e707 (bvand (bvnot $e706) (bvnot $e704))))
(let (($e708 (bvand $e707 (bvnot $e702))))
(let (($e709 (bvand $e708 (bvnot $e699))))
(let (($e710 (bvand $e709 (bvnot $e507))))
 (not (= $e710 #b0)))))))))))))))))))))))))))))))))))))))))))))))))))))))))))))))))))))))))))))))))))))))))))))))))))))))))))))))))))))))))))))))))))))))))))))))))))))))))))))))))))))))))))))))))))))))))))))))))))))))))))))))))))))))))))))))))))))))))))))))))))))))))))))))))))))))))))))))))))))))))))))))))))))))))))))))))))))))))))))))))))))))))))))))))))))))))))))))))))))))))))))))))))))))))))))))))))))))))))))))))))))))))))))))))))))))))))))))))))))))))))))))))))))))))))))))))))))))))))))))))))))))))))))))))))))))))))))))))))))))))))))))))))))))))))))))))))))))))))))))))))))))))))))))))))))))))))))))))))))))))))))))))))))))))))))))))))))))))))))))))))))))))))))))))))))))))))))))))))))))))))))))))))))))))
(check-sat)
(exit)
